************************************************************************
file with basedata            : J12032_.BAS
initial value random generator: 318454162
************************************************************************
projects                      :  1
jobs (incl. supersource/sink ):  122
horizon                       :  637
RESOURCES
  - renewable                 :  4   R
  - nonrenewable              :  0   N
  - doubly constrained        :  0   D
************************************************************************
PROJECT INFORMATION:
pronr.  #jobs rel.date duedate tardcost  MPM-Time
    1    120      0       86       81       86
************************************************************************
PRECEDENCE RELATIONS:
jobnr.    #modes  #successors   successors
   1        1          3           2   3   4
   2        1          3           5   8  45
   3        1          2           7  16
   4        1          3          18  54  66
   5        1          3           6  10  13
   6        1          2          20  48
   7        1          3           9  11  21
   8        1          3          25  34 111
   9        1          3          12  15 109
  10        1          3          31  40  86
  11        1          1          24
  12        1          3          14  23  32
  13        1          3          70  94 116
  14        1          1          37
  15        1          2          30  87
  16        1          3          17  68 103
  17        1          3          19  26  30
  18        1          3          44  45  72
  19        1          1         117
  20        1          3          22  28  33
  21        1          1          50
  22        1          3          35  43  96
  23        1          3          46  49  55
  24        1          2          52 105
  25        1          3          27  29  41
  26        1          3          53  83 118
  27        1          2          90  95
  28        1          1          63
  29        1          2          51  89
  30        1          2          55  59
  31        1          2          39  76
  32        1          3          36  56  71
  33        1          1          61
  34        1          3          39  42  58
  35        1          3          52  78  79
  36        1          1          87
  37        1          2          38  92
  38        1          2          57 104
  39        1          3          81  89  93
  40        1          3          47  64  66
  41        1          1          50
  42        1          3          57  60  82
  43        1          1          98
  44        1          2          60  75
  45        1          1          63
  46        1          2          73  76
  47        1          3          48  74  77
  48        1          3          69  72  84
  49        1          1          74
  50        1          1          62
  51        1          2          68 112
  52        1          3          69  81  95
  53        1          3          77  92  96
  54        1          2          81 109
  55        1          2          93  98
  56        1          3          62  70 100
  57        1          2          61  65
  58        1          2          76 102
  59        1          1          74
  60        1          1          86
  61        1          2          80  98
  62        1          1          75
  63        1          1          65
  64        1          1         102
  65        1          3          67  69  94
  66        1          2          92 105
  67        1          1         112
  68        1          2         102 110
  69        1          2          73  99
  70        1          2          77 119
  71        1          2         103 107
  72        1          2          91 101
  73        1          1         117
  74        1          3          78  88 113
  75        1          1          85
  76        1          2          78  85
  77        1          2          88 106
  78        1          2          93 106
  79        1          1          97
  80        1          1          94
  81        1          3          85 106 115
  82        1          1         104
  83        1          1         100
  84        1          1          96
  85        1          3          87  90  99
  86        1          1          88
  87        1          1         114
  88        1          1          89
  89        1          1         101
  90        1          1         108
  91        1          1         107
  92        1          1         115
  93        1          1          99
  94        1          1         108
  95        1          1         115
  96        1          2         100 107
  97        1          1         109
  98        1          2         114 118
  99        1          1         101
 100        1          1         116
 101        1          1         110
 102        1          1         105
 103        1          2         104 121
 104        1          1         120
 105        1          1         113
 106        1          1         120
 107        1          2         108 111
 108        1          1         110
 109        1          2         111 112
 110        1          1         121
 111        1          1         116
 112        1          1         113
 113        1          2         114 117
 114        1          1         119
 115        1          1         119
 116        1          1         121
 117        1          1         118
 118        1          1         120
 119        1          1         122
 120        1          1         122
 121        1          1         122
 122        1          0        
************************************************************************
REQUESTS/DURATIONS:
jobnr. mode duration  R 1  R 2  R 3  R 4
------------------------------------------------------------------------
  1      1     0       0    0    0    0
  2      1     6       0    5    8    5
  3      1    10       0   10    7    0
  4      1     5       0    9    0    4
  5      1     5       4    7    9    2
  6      1     2       1    5    2    1
  7      1     5       5   10    5    0
  8      1     8       8    0    0    0
  9      1     6       0    6    9    2
 10      1     3       0    2    2    3
 11      1     3       1    3   10   10
 12      1     2       6    2    0    8
 13      1     2       6    9    7    4
 14      1     1       1    0   10    4
 15      1    10       3    4    6    0
 16      1     5       5    6    0    4
 17      1     5       8    6    3    6
 18      1     3       2    7    0    1
 19      1     1       0    7    0    9
 20      1     2       8   10    7    2
 21      1    10       8    8    2    0
 22      1     3       9   10    0    9
 23      1     5       0    5    0    1
 24      1     9       0    7    8    5
 25      1     5       7    0    9    9
 26      1    10       0    3   10   10
 27      1     5       2    8    8    1
 28      1     2       9    6    0    7
 29      1     7       0    3   10    6
 30      1    10       7    2    8   10
 31      1     3       5   10   10    0
 32      1     1       8    5    0    7
 33      1    10       0    3    0    0
 34      1     9       4   10    3   10
 35      1     8       6   10    5    6
 36      1    10       1   10    4    2
 37      1     1       2   10    8    3
 38      1     6       7    0   10    0
 39      1     7       0    1    5   10
 40      1     1       7    4    3    9
 41      1     6       0    0    3    0
 42      1     1      10    5    8    0
 43      1     7       3    3    6    8
 44      1     1       7    6    8    6
 45      1     8      10    5    9    3
 46      1     8       1    0    3   10
 47      1     6       8    2    8    8
 48      1     3       9    0    5    6
 49      1     5       1    0    3    8
 50      1     6       9    3    4    0
 51      1     8       5    6    0    1
 52      1     7       7    0    0    0
 53      1     6      10    1    5    1
 54      1     1       0    5    5    4
 55      1     2       9    0    0    9
 56      1     2       9    8    3    3
 57      1     4       9    6    3    0
 58      1     4       4   10    5    0
 59      1     5       4    6    0    9
 60      1    10       0    0   10    7
 61      1     7       0    0    0    6
 62      1     3       7    8    0    0
 63      1     1      10    8    4    2
 64      1     5       0    4    1    0
 65      1     6       5    7    0    4
 66      1     4       8    0    6    6
 67      1    10       4    5    0    7
 68      1     1       8    0    6    2
 69      1     2       0    4    4    5
 70      1     6       1    5    1    2
 71      1     9      10    4    7    6
 72      1    10       0    3   10    1
 73      1     5       5    8    6   10
 74      1     7       5    0    0    5
 75      1     6       0    2    8    0
 76      1     9       5    0    9    3
 77      1     6       0    0    5    7
 78      1    10       0    0    0    2
 79      1     6       9    7    6    1
 80      1     1       0    1    4    0
 81      1     6       3    9    7    6
 82      1     8       7    6    5    4
 83      1     9       0    3    2    0
 84      1     9       0    6    6    5
 85      1    10       3    0    0    6
 86      1     3       0    0    7    2
 87      1     7       0    9    6    8
 88      1     7       0    6    2    0
 89      1     4       7    0    2    1
 90      1     5       0    4    3    6
 91      1     8       0    5   10    9
 92      1     3       5   10   10   10
 93      1     7       3    0    0    6
 94      1     3       1    1   10    4
 95      1    10       5    0    7    0
 96      1     6       1    2    2    8
 97      1     5       0    1    0    1
 98      1     3       0    6    0    6
 99      1     9       2    6    0    4
100      1     1       2    0    6    7
101      1     1       0    3    0   10
102      1     6       5    1   10    9
103      1     7       8    0    0    2
104      1     5       4    7    0    8
105      1     1      10    3    7    8
106      1     1       3    6    9    2
107      1     4       9    5    6    3
108      1     5       6   10    0    5
109      1     3       2    8    0    3
110      1     2       4    0    2    6
111      1     1       8    8    0    5
112      1     9       9    6    0    6
113      1     1       8    9    9    0
114      1     8       0   10    8    3
115      1     8       1    6    5    4
116      1     8       2   10    9    7
117      1     6       0   10    0    3
118      1     3       7    1    9    3
119      1     6       7    0    0    8
120      1     5       4    5    9    5
121      1     4       7    8    8    0
122      1     0       0    0    0    0
************************************************************************
RESOURCEAVAILABILITIES:
  R 1  R 2  R 3  R 4
   23   29   31   24
************************************************************************
